
  22   10
  10   10   10   10   10   10   10   10   10   10

   0   0   0   0   0   0   0   0   0   0   0   5 2 3 4 6 9 
   6   0   0   0   0   0   0   0   0  10   0   5 16 13 11 7 5 
   4  10   0   0   0   0   0   0   0   0   0   5 13 11 8 7 5 
  10   0  10   0   0   0   0   0   0   0   0   3 13 8 5 
   4   0   0  10   0   0   0   0   0   0   0   4 21 20 15 10 
   6   0   0   0   0   0   0  10   0   0   0   3 20 12 11 
  10   0   0   0   0   0   0  10   0   0   0   4 21 19 15 14 
   3   0   0   0   0   0  10   0   0   0   0   3 21 18 12 
  10  10   0   0   0   0   0   0   0   0   0   3 19 15 14 
   8   0   0   0   0   0   0  10   0   0   0   2 18 12 
   6   0   0   0   0   0   0   0   0   0  10   3 19 18 14 
   4   0   0   0  10   0   0   0   0   0   0   2 19 14 
   8   0   0   0   0   0   0  10   0   0   0   2 20 17 
   2   0   0   0   0   0   0   0  10   0   0   1 17 
   6   0   0   0  10   0   0   0   0   0   0   1 18 
   1   0   0   0   0  10   0   0   0   0   0   1 18 
   9   0   0   0  10   0   0   0   0   0   0   1 22
   5  10   0   0   0   0   0   0   0   0   0   1 22
   4   0   0   0  10   0   0   0   0   0   0   1 22
   5   0   0   0   0   0   0  10   0   0   0   1 22
  10   0   0   0   0   0  10   0   0   0   0   1 22
   0   0   0   0   0   0   0   0   0   0   0   0 
